100
128
24
53
18
23
25
53
25
1
6
17
47
17
4
46
14
10
29
14
51
34
43
47
37
38
29
15
46
12
55
60
18
22
58
22
1
33
39
15
38
61
14
53
38
26
39
60
13
58
40
22
53
20
5
60
26
21
51
13
39
42
48
16
61
30
24
29
43
52
33
25
64
32
32
25
3
6
63
30
46
25
29
32
28
53
53
36
32
60
41
47
62
37
38
29
22
32
48
48
63
64